p cnf 363 268
d 0.875 0.125
d 0.875 0.125
d 0.875 0.125
d 0.875 0.125
d 0.875 0.125
d 0.875 0.125
d 0.875 0.125
d 0.875 0.125
d 0.875 0.125
d 0.875 0.125
d 0.875 0.125
d 0.875 0.125
d 0.875 0.125
d 0.875 0.125
d 0.875 0.125
d 0.875 0.125
d 0.875 0.125
d 0.875 0.125
d 0.875 0.125
d 0.875 0.125
d 0.875 0.125
d 0.875 0.125
d 0.875 0.125
d 0.875 0.125
d 0.875 0.125
d 0.875 0.125
d 0.875 0.125
d 0.875 0.125
d 0.875 0.125
d 0.875 0.125
d 0.875 0.125
d 0.875 0.125
d 0.875 0.125
d 0.875 0.125
d 0.875 0.125
d 0.875 0.125
d 0.875 0.125
d 0.875 0.125
d 0.875 0.125
d 0.875 0.125
d 0.875 0.125
d 0.875 0.125
d 0.875 0.125
d 0.875 0.125
d 0.875 0.125
d 0.875 0.125
d 0.875 0.125
d 0.875 0.125
d 0.875 0.125
d 0.875 0.125
d 0.875 0.125
d 0.875 0.125
d 0.875 0.125
d 0.875 0.125
d 0.875 0.125
d 0.875 0.125
d 0.875 0.125
d 0.875 0.125
d 0.875 0.125
d 0.875 0.125
d 0.875 0.125
d 0.875 0.125
d 0.875 0.125
d 0.875 0.125
d 0.875 0.125
d 0.875 0.125
d 0.875 0.125
d 0.875 0.125
d 0.875 0.125
d 0.875 0.125
d 0.875 0.125
d 0.875 0.125
d 0.875 0.125
d 0.875 0.125
d 0.875 0.125
d 0.875 0.125
d 0.875 0.125
d 0.875 0.125
d 0.875 0.125
d 0.875 0.125
d 0.875 0.125
d 0.875 0.125
d 0.875 0.125
d 0.875 0.125
d 0.875 0.125
d 0.875 0.125
d 0.875 0.125
d 0.875 0.125
d 0.875 0.125
d 0.875 0.125
d 0.875 0.125
d 0.875 0.125
d 0.875 0.125
d 0.875 0.125
d 0.875 0.125
d 0.875 0.125
d 0.875 0.125
d 0.875 0.125
d 0.875 0.125
d 0.875 0.125
d 0.875 0.125
d 0.875 0.125
d 0.875 0.125
d 0.875 0.125
d 0.875 0.125
d 0.875 0.125
d 0.875 0.125
d 0.875 0.125
d 0.875 0.125
d 0.875 0.125
d 0.875 0.125
d 0.875 0.125
d 0.875 0.125
d 0.875 0.125
d 0.875 0.125
d 0.875 0.125
d 0.875 0.125
d 0.875 0.125
d 0.875 0.125
d 0.875 0.125
d 0.875 0.125
d 0.875 0.125
d 0.875 0.125
d 0.875 0.125
d 0.875 0.125
d 0.875 0.125
d 0.875 0.125
d 0.875 0.125
d 0.875 0.125
d 0.875 0.125
d 0.875 0.125
d 0.875 0.125
d 0.875 0.125
328
-305
353 -298 -0
298 -353 -0
294 -336 -2
336 -294 -2
268 -351 -4
351 -268 -4
337 -359 -6
359 -337 -6
310 -302 -8
302 -310 -8
287 -308 -10
308 -287 -10
319 -310 -12
310 -319 -12
314 -315 -14
315 -314 -14
333 -318 -16
318 -333 -16
302 -291 -18
291 -302 -18
360 -304 -20
304 -360 -20
276 -284 -22
284 -276 -22
272 -344 -24
344 -272 -24
354 -286 -26
286 -354 -26
287 -289 -28
289 -287 -28
333 -351 -30
351 -333 -30
337 -353 -32
353 -337 -32
326 -348 -34
348 -326 -34
282 -335 -36
335 -282 -36
332 -339 -38
339 -332 -38
288 -323 -40
323 -288 -40
293 -325 -42
325 -293 -42
284 -276 -44
276 -284 -44
316 -269 -46
269 -316 -46
340 -349 -48
349 -340 -48
341 -321 -50
321 -341 -50
283 -352 -52
352 -283 -52
289 -337 -54
337 -289 -54
308 -311 -56
311 -308 -56
322 -270 -58
270 -322 -58
341 -310 -60
310 -341 -60
358 -323 -62
323 -358 -62
270 -332 -64
332 -270 -64
301 -313 -66
313 -301 -66
280 -293 -68
293 -280 -68
320 -305 -70
305 -320 -70
319 -310 -72
310 -319 -72
340 -275 -74
275 -340 -74
279 -300 -76
300 -279 -76
319 -310 -78
310 -319 -78
268 -306 -80
306 -268 -80
271 -278 -82
278 -271 -82
356 -352 -84
352 -356 -84
290 -317 -86
317 -290 -86
356 -316 -88
316 -356 -88
303 -304 -90
304 -303 -90
292 -303 -92
303 -292 -92
287 -352 -94
352 -287 -94
355 -330 -96
330 -355 -96
267 -345 -98
345 -267 -98
302 -361 -100
361 -302 -100
299 -266 -102
266 -299 -102
284 -276 -104
276 -284 -104
331 -281 -106
281 -331 -106
268 -351 -108
351 -268 -108
339 -282 -110
282 -339 -110
320 -318 -112
318 -320 -112
303 -270 -114
270 -303 -114
287 -296 -116
296 -287 -116
271 -336 -118
336 -271 -118
274 -321 -120
321 -274 -120
305 -290 -122
290 -305 -122
322 -292 -124
292 -322 -124
292 -303 -126
303 -292 -126
309 -361 -128
361 -309 -128
310 -289 -130
289 -310 -130
298 -266 -132
266 -298 -132
277 -300 -134
300 -277 -134
360 -304 -136
304 -360 -136
357 -294 -138
294 -357 -138
289 -297 -140
297 -289 -140
341 -328 -142
328 -341 -142
350 -272 -144
272 -350 -144
295 -272 -146
272 -295 -146
267 -279 -148
279 -267 -148
298 -330 -150
330 -298 -150
295 -362 -152
362 -295 -152
306 -278 -154
278 -306 -154
306 -278 -156
278 -306 -156
327 -286 -158
286 -327 -158
332 -315 -160
315 -332 -160
289 -306 -162
306 -289 -162
327 -285 -164
285 -327 -164
293 -282 -166
282 -293 -166
289 -336 -168
336 -289 -168
267 -335 -170
335 -267 -170
332 -312 -172
312 -332 -172
347 -345 -174
345 -347 -174
338 -324 -176
324 -338 -176
309 -286 -178
286 -309 -178
289 -283 -180
283 -289 -180
342 -301 -182
301 -342 -182
324 -307 -184
307 -324 -184
347 -277 -186
277 -347 -186
270 -332 -188
332 -270 -188
276 -344 -190
344 -276 -190
270 -332 -192
332 -270 -192
342 -266 -194
266 -342 -194
288 -332 -196
332 -288 -196
296 -334 -198
334 -296 -198
349 -331 -200
331 -349 -200
281 -330 -202
330 -281 -202
298 -281 -204
281 -298 -204
291 -329 -206
329 -291 -206
357 -269 -208
269 -357 -208
325 -335 -210
335 -325 -210
284 -344 -212
344 -284 -212
317 -358 -214
358 -317 -214
296 -316 -216
316 -296 -216
311 -334 -218
334 -311 -218
354 -309 -220
309 -354 -220
297 -273 -222
273 -297 -222
359 -353 -224
353 -359 -224
347 -343 -226
343 -347 -226
332 -315 -228
315 -332 -228
315 -312 -230
312 -315 -230
332 -312 -232
312 -332 -232
310 -301 -234
301 -310 -234
314 -284 -236
284 -314 -236
339 -325 -238
325 -339 -238
277 -343 -240
343 -277 -240
287 -356 -242
356 -287 -242
333 -351 -244
351 -333 -244
340 -331 -246
331 -340 -246
338 -346 -248
346 -338 -248
322 -270 -250
270 -322 -250
287 -283 -252
283 -287 -252
318 -310 -254
310 -318 -254
343 -348 -256
348 -343 -256
348 -354 -258
354 -348 -258
314 -315 -260
315 -314 -260
361 -291 -262
291 -361 -262
278 -297 -264
297 -278 -264